1 -1 2 0
1 -3 -4 0
1 -3 -5 0
1 -6 7 0
1 -8 9 0
1 4 10 0
1 11 -12 0
1 -13 -14 0
1 14 13 0
1 -14 -15 0
1 16 -17 0
1 12 18 0
1 12 19 0
1 7 -18 0
1 -7 19 0
1 -7 20 0
1 7 10 0
1 17 -21 0
1 -17 10 0
1 22 -17 0
1 -23 -21 0
1 -23 -20 0
1 -23 -24 0
1 25 23 0
1 -26 22 0
1 26 -17 0
1 21 23 0
1 21 26 0
1 -24 -22 0
1 -27 28 0
1 -29 -30 0
1 29 -4 0
1 31 -32 0
1 -33 31 0
1 34 35 0
1 36 27 0
1 -10 8 0
1 -18 33 0
1 -18 2 0
1 -20 -28 0
1 -20 -37 0
1 -30 38 0
1 37 39 0
1 32 -31 0
1 -32 20 0
1 40 41 0
1 40 30 0
1 40 14 0
1 38 -42 0
1 -9 -8 0
1 43 -38 0
